\* Dreamteam *\
Maximize
OBJ: 5.04128742218 x_0 + 5.38496017456 x_1 + 39.9311180115 x_10
 + 21.4194850922 x_11 + 41.2974624634 x_12 + 14.9240674973 x_13
 + 1.67851698399 x_14 + 25.555475235 x_15 - 0.447745382786 x_16
 + 54.3076896667 x_17 + 5.86302375793 x_18 + 23.3573150635 x_19
 + 32.549407959 x_2 + 9.50800609589 x_20 + 17.3267230988 x_21
 + 2.03293132782 x_3 + 16.0339584351 x_4 + 4.17510509491 x_5
 + 5.83582687378 x_6 + 74.0938262939 x_7 + 30.2575721741 x_8
 + 6.31574249268 x_9
Subject To
_C1: x_0 + x_12 + x_20 + x_8 >= 1
_C10: 8.5 x_0 + 8.5 x_1 + 9.5 x_10 + 10 x_11 + 9.5 x_12 + 9.5 x_13 + 8.5 x_14
 + 9 x_15 + 8.5 x_16 + 8.5 x_17 + 8.5 x_18 + 9 x_19 + 8 x_2 + 8.5 x_20
 + 8 x_21 + 8.5 x_3 + 9.5 x_4 + 8.5 x_5 + 10 x_6 + 8.5 x_7 + 8 x_8 + 8 x_9
 <= 100
_C11: x_0 + x_1 + x_10 + x_2 + x_3 + x_4 + x_5 + x_6 + x_7 + x_8 + x_9 <= 7
_C12: x_11 + x_12 + x_13 + x_14 + x_15 + x_16 + x_17 + x_18 + x_19 + x_20
 + x_21 <= 7
_C2: x_0 + x_12 + x_20 + x_8 <= 4
_C3: x_1 + x_11 + x_13 + x_17 + x_21 + x_6 >= 3
_C4: x_1 + x_11 + x_13 + x_17 + x_21 + x_6 <= 6
_C5: x_10 + x_16 + x_18 + x_4 >= 1
_C6: x_10 + x_16 + x_18 + x_4 <= 4
_C7: x_14 + x_15 + x_19 + x_2 + x_3 + x_5 + x_7 + x_9 >= 3
_C8: x_14 + x_15 + x_19 + x_2 + x_3 + x_5 + x_7 + x_9 <= 6
_C9: x_0 + x_1 + x_10 + x_11 + x_12 + x_13 + x_14 + x_15 + x_16 + x_17 + x_18
 + x_19 + x_2 + x_20 + x_21 + x_3 + x_4 + x_5 + x_6 + x_7 + x_8 + x_9 = 11
Binaries
x_0
x_1
x_10
x_11
x_12
x_13
x_14
x_15
x_16
x_17
x_18
x_19
x_2
x_20
x_21
x_3
x_4
x_5
x_6
x_7
x_8
x_9
End
